
Gurobi 6.5.2 (linux64) logging started Wed Sep 14 14:58:48 2016

Optimize a model with 41 rows, 77 columns and 171 nonzeros
Coefficient statistics:
  Matrix range    [1e+00, 2e+00]
  Objective range [2e+00, 1e+02]
  Bounds range    [1e+00, 1e+00]
  RHS range       [1e+00, 1e+00]
Presolve removed 17 rows and 11 columns
Presolve time: 0.00s
Presolved: 24 rows, 66 columns, 133 nonzeros
Variable types: 0 continuous, 66 integer (66 binary)

Root relaxation: objective 6.370000e+02, 29 iterations, 0.00 seconds

    Nodes    |    Current Node    |     Objective Bounds      |     Work
 Expl Unexpl |  Obj  Depth IntInf | Incumbent    BestBd   Gap | It/Node Time

     0     0  637.00000    0    2          -  637.00000      -     -    0s
H    0     0                     754.0000000  637.00000  15.5%     -    0s
     0     0  639.00000    0    2  754.00000  639.00000  15.3%     -    0s
     0     0  647.75000    0   15  754.00000  647.75000  14.1%     -    0s
     0     0  664.40000    0   15  754.00000  664.40000  11.9%     -    0s
H    0     0                     748.0000000  664.40000  11.2%     -    0s
H    0     0                     689.0000000  664.40000  3.57%     -    0s
     0     0  667.25000    0   20  689.00000  667.25000  3.16%     -    0s
     0     0  667.25000    0    2  689.00000  667.25000  3.16%     -    0s
H    0     0                     688.0000000  667.25000  3.02%     -    0s
     0     0  667.25000    0    5  688.00000  667.25000  3.02%     -    0s
     0     0  667.25000    0    9  688.00000  667.25000  3.02%     -    0s
*    0     0               0     675.0000000  675.00000  0.00%     -    0s

Cutting planes:
  Gomory: 4
  Cover: 8
  MIR: 2
  Zero half: 3

Explored 0 nodes (83 simplex iterations) in 0.01 seconds
Thread count was 8 (of 8 available processors)

Optimal solution found (tolerance 1.00e-04)
Best objective 6.750000000000e+02, best bound 6.750000000000e+02, gap 0.0%
